NAME : mEgtspf.pid18103.gtsp.160061406.tour
COMMENT : Length = 160061406
COMMENT : Found by LKH [Keld Helsgaun] Thu Mar 20 00:09:53 2025
TYPE : TOUR
DIMENSION : 90
TOUR_SECTION
1
78
75
76
77
7
9
65
66
63
64
68
69
70
67
8
17
18
15
16
32
33
34
31
37
38
35
36
86
83
84
85
87
88
89
90
6
59
60
61
62
10
22
19
20
21
49
50
47
48
24
25
26
23
53
54
51
52
82
79
80
81
12
13
14
11
2
5
71
72
73
74
28
29
30
27
4
55
56
57
58
43
44
45
46
41
42
39
40
3
-1
EOF
